[215.0, 275.0, 263.0, 291.0, 307.0, 343.0, 352.0, 358.0, 338.0, 395.0, 371.0, 395.0, 419.0, 420.0, 437.0, 414.0, 423.0, 402.0, 501.0, 476.0, 467.0, 507.0, 462.0, 484.0, 509.0, 493.0, 621.0, 624.0, 584.0, 563.0, 506.0, 591.0, 504.0, 544.0, 567.0, 716.0, 753.0, 662.0, 665.0, 647.0, 635.0, 651.0, 653.0, 750.0, 837.0, 823.0, 774.0, 726.0, 707.0, 715.0, 748.0, 674.0, 773.0, 961.0, 979.0, 945.0, 727.0, 689.0, 741.0, 762.0, 772.0, 915.0, 1109.0, 1061.0]
